0001 19
0002 10
0003 24
0004 16
0005 1
0006 14
0007 3
0008 8
0009 10
0010 15
0011 5
0012 24
0013 7
0014 17
0015 0
0016 22
0017 9
0018 11
0019 13
0020 7
0021 3
0022 6
0023 7
0024 1
0025 6
0026 15
0027 11
0028 19
0029 1
0030 8
0031 3
0032 4
0033 14
0034 6
0035 2
0036 6
0037 7
0038 20
0039 24
0040 0
0041 9
0042 18
0043 6
0044 10
0045 15
0046 0
0047 13
0048 22
0049 17
0050 2
0051 22
0052 22
0053 13
0054 12
0055 7
0056 1
0057 7
0058 2
0059 4
0060 14
0061 13
0062 0
0063 15
0064 24
0065 16
0066 3
0067 0
0068 2
0069 16
0070 10
0071 11
0072 11
0073 18
0074 3
0075 5
0076 15
0077 0
0078 20
0079 24
0080 21
0081 18
0082 7
0083 22
0084 4
0085 8
0086 17
0087 10
0088 6
0089 12
0090 16
0091 2
0092 20
0093 0
0094 12
0095 23
0096 17
0097 15
0098 7
0099 3
0100 8
0101 6
0102 4
0103 20
0104 0
0105 24
0106 16
0107 19
0108 12
0109 14
0110 16
0111 8
0112 13
0113 24
0114 5
0115 15
0116 12
0117 17
0118 5
0119 1
0120 3
0121 18
0122 3
0123 7
0124 24
0125 11
0126 5
0127 2
0128 13
0129 20
0130 8
0131 9
0132 24
0133 7
0134 14
0135 0
0136 16
0137 4
0138 2
0139 24
0140 14
0141 19
0142 6
0143 14
0144 17
0145 7
0146 3
0147 4
0148 2
0149 9
0150 3
0151 5
0152 0
0153 13
0154 22
0155 22
0156 9
0157 1
0158 22
0159 8
0160 18
0161 24
0162 4
0163 15
0164 6
0165 17
0166 15
0167 13
0168 16
0169 5
0170 11
0171 4
0172 17
0173 2
0174 1
0175 14
0176 24
0177 1
0178 0
0179 2
0180 9
0181 0
0182 8
0183 14
0184 2
0185 2
0186 0
0187 4
0188 9
0189 18
0190 7
0191 3
0192 14
0193 7
0194 10
0195 17
0196 8
0197 1
0198 5
0199 16
0200 3
0201 8
0202 12
0203 17
0204 11
0205 14
0206 13
0207 24
0208 1
0209 10
0210 5
0211 2
0212 7
0213 16
0214 0
0215 0
0216 0
0217 3
0218 16
0219 15
0220 10
0221 1
0222 19
0223 10
0224 22
0225 5
0226 2
0227 6
0228 24
0229 16
0230 15
0231 18
0232 17
0233 6
0234 10
0235 10
0236 4
0237 9
0238 3
0239 0
0240 1
0241 16
0242 4
0243 5
0244 16
0245 6
0246 6
0247 8
0248 12
0249 3
0250 9
0251 3
0252 22
0253 7
0254 3
0255 5
0256 16
0257 8
0258 15
0259 14
0260 1
0261 4
